original problem has 10976 variables (10975 bin, 0 int, 0 impl, 1 cont) and 12526 constraints
1/1 feasible solution given by solution candidate storage, new primal bound 3.000000e+00

presolving:
   (0.1s) running MILP presolver
   (0.1s) MILP presolver (2 rounds): 0 aggregations, 0 fixings, 0 bound changes
(round 1, exhaustive) 1 del vars, 1 del conss, 0 add conss, 0 chg bounds, 0 chg sides, 0 chg coeffs, 12431 upgd conss, 0 impls, 10465 clqs
(round 2, exhaustive) 1 del vars, 4 del conss, 2 add conss, 0 chg bounds, 5 chg sides, 7 chg coeffs, 12525 upgd conss, 0 impls, 10465 clqs
   (2.1s) probing: 1000/10975 (9.1%) - 0 fixings, 0 aggregations, 2047 implications, 0 bound changes
   (2.1s) probing: 1001/10975 (9.1%) - 0 fixings, 0 aggregations, 2049 implications, 0 bound changes
   (2.1s) probing aborted: 1000/1000 successive useless probings
presolving (3 rounds: 3 fast, 3 medium, 3 exhaustive):
 1 deleted vars, 4 deleted constraints, 2 added constraints, 0 tightened bounds, 0 added holes, 5 changed sides, 7 changed coefficients
 0 implications, 12514 cliques
presolved problem has 10975 variables (10975 bin, 0 int, 0 impl, 0 cont) and 12524 constraints
   2041 constraints of type <knapsack>
  10465 constraints of type <setppc>
     18 constraints of type <logicor>
transformed objective value is always integral (scale: 1)
Presolving Time: 2.08
transformed 1/1 original solutions to the transformed problem space

 time | node  | left  |LP iter|LP it/n|mem/heur|mdpt |vars |cons |rows |cuts |sepa|confs|strbr|  dualbound   | primalbound  |  gap   | compl. 
 11.3s|     1 |     0 | 16525 |     - |    79M |   0 |  10k|  12k|  12k|   0 |  0 |   0 |   0 | 3.000000e+00 | 3.000000e+00 |   0.00%| unknown

SCIP Status        : problem is solved [optimal solution found]
Solving Time (sec) : 11.30
Solving Nodes      : 1
Primal Bound       : +3.00000000000000e+00 (1 solutions)
Dual Bound         : +3.00000000000000e+00
Gap                : 0.00 %
